NAME : cgl_72.10370.tour
COMMENT : Length = 10370
COMMENT : Found by LKH-3 [Keld Helsgaun] Fri Nov  8 19:20:30 2024
TYPE : TOUR
DIMENSION : 72
TOUR_SECTION
72
1
3
5
2
7
25
22
9
8
24
16
18
20
17
23
21
15
14
19
11
13
12
10
26
27
28
29
30
31
32
42
33
39
41
40
43
34
38
35
36
37
44
45
46
47
48
49
50
51
4
6
52
53
55
54
56
68
71
61
57
60
62
59
64
63
58
65
70
69
67
66
-1
EOF
